# Find minimum energy fcc configuration
# Mark Tschopp, 2010

# ---------- Initialize Simulation --------------------- 
clear 
units metal 
dimension 3 
boundary p p p 
atom_style atomic 
atom_modify map array

# ---------- Create Atoms --------------------- 
read_data Al10Cu.lmpdat

# ---------- Define Interatomic Potential --------------------- 
pair_style lj/cut 2.5
pair_coeff * * 1.0 1.0 2.5
neighbor 2.0 bin 
neigh_modify delay 10 check yes 
 
# ---------- Define Settings/computation --------------------- 
compute eng all pe/atom 
compute eatoms all reduce sum c_eng 

# ---------- Run Minimization/fix operation and settings --------------------- 
reset_timestep 0 
fix 1 all box/relax iso 0.0 vmax 0.001
thermo 100
thermo_style custom step lx ly lz  c_eatoms 
min_style cg 
minimize 1e-25 1e-25 5000 10000 

# visualization style foe ovito
dump me all custom 250 dump.lat.* id type x y z c_eng

# define variables 
variable natoms equal "count(all)" 
variable teng equal "c_eatoms"
variable length equal "lx"
variable cubelength equal "12"

#calculation for lattice parameter
variable lp equal "v_length/v_cubelength"
variable ecoh equal "v_teng/v_natoms"

print "Total energy (eV) = ${teng};"
print "Number of atoms = ${natoms};"
print "Lattice constant (Angstoms) = ${lp}"
print "Cohesive energy (eV) = ${ecoh};"

print "All done zac!"
