#-------Of course I shall document my tensile test of Al 10%wt Cu
#-----Yami_Senpai {-_-} 20th Mar 2022!!!!!! 

# ------------------------ INITIATION -------------------------------- 
units metal 
dimension 3 
boundary p p p 
atom_style atomic  
# ----------------------- Geometry of Material ----------------------- 
read_data Al_10_Cu_2.lmpdat #As generated after casting
# --------------------Potential function-------------------------------- 
pair_style meam
pair_coeff * * ../potentials/library.meam Al Cu AlCu.meam Al Cu
#--------------------Equilibration-------------------------------------- 
compute csym all centro/atom fcc 
compute peratom all pe/atom 

reset_timestep 0 
timestep 0.001 
velocity all create 300 12345 mom yes rot no 
fix 1 all npt temp 300 300 1 iso 0 0 1 drag 1 

minimize 1.0e-4 1.0e-6 100 1000 

thermo 1000 
thermo_style custom step lx ly lz press pxx pyy pzz pe temp

run 20000 
unfix 1 

dump ten all custom 500 dump.ten.* x y z

variable tmp equal "lx" 
variable L0 equal ${tmp} 
print "Initial Length, L0: ${L0}" 

#---------------------Stress-Strain Calculation---------------- 
reset_timestep 0 
fix 1 all npt temp 300 300 1 y 0 0 1 z 0 0 1 drag 1 
variable srate equal 1.0e10 
variable srate1 equal "v_srate / 1.0e12" 

fix 2 all deform 1 x erate ${srate1} units box remap x 

variable strain equal "(lx - v_L0)/v_L0" 
variable p1 equal "v_strain" 
variable p2 equal "-pxx/10000" 
variable p3 equal "-pyy/10000" 
variable p4 equal "-pzz/10000" 
fix def1 all print 100 "${p1} ${p2} ${p3} ${p4}" file Al10Cu.txt screen no 

dump 1 all custom 250 *.dump type x y z 

thermo 1000 
thermo_style custom step v_strain temp v_p2 v_p3 v_p4 ke pe press 

run 20000 
#---------------------simulation completely done------------ 
print "All done Zac"